136
1000
251
428
217
11
71
285
200
355
366
240
498
50
164
328
292
21
347
70
1
500
170
468
327
96
312
259
243
277
319
71
148
444
65
262
422
241
65
72
162
98
221
198
284
444
383
459
219
59
127
29
77
331
2
388
10
476
146
171
55
353
391
291
148
28
69
1
332
211
240
201
103
239
128
459
304
36
236
2
213
336
80
42
248
265
364
268
319
151
443
19
183
29
68
260
209
170
202
27
240
151
136
492
78
439
470
290
365
71
300
146
209
394
139
153
137
225
37
481
159
241
241
424
74
257
137
346
427
46
79
201
339
280
195
18
293
327
